\ENCODING=ISO-8859-1
\Problem name: IloCplex

Minimize
 obj1: 275 x1 + 275 x2 + 796 x3 + 796 x4 + 638 x5 + 638 x6 + 987 x7 + 987 x8
       + 218 x9 + 218 x10 + 500 x11 + 500 x12 + 524 x13 + 524 x14 + 537 x15
       + 537 x16 + 311 x17 + 311 x18 + 621 x19 + 621 x20 + 812 x21 + 812 x22
       + 549 x23 + 549 x24 + 622 x25 + 622 x26 + 334 x27 + 334 x28 + 191 x29
       + 191 x30 + 363 x31 + 363 x32 + 707 x33 + 707 x34 + 380 x35 + 380 x36
       + 60 x37 + 60 x38 + 851 x39 + 851 x40 + 468 x41 + 468 x42 + 36 x43
       + 36 x44 + 711 x45 + 711 x46 + 704 x47 + 704 x48 + 924 x49 + 924 x50
       + 410 x51 + 410 x52 + 436 x53 + 436 x54 + 638 x55 + 638 x56 + 769 x57
       + 769 x58 + 875 x59 + 875 x60 + 194 x61 + 194 x62 + 44 x63 + 44 x64
       + 672 x65 + 672 x66 + 832 x67 + 832 x68 + 32 x69 + 32 x70 + 891 x71
       + 891 x72 + 333 x73 + 333 x74 + 556 x75 + 556 x76 + 428 x77 + 428 x78
       + 644 x79 + 644 x80 + 178 x81 + 178 x82 + 241 x83 + 241 x84 + 194 x85
       + 194 x86 + 800 x87 + 800 x88 + 576 x89 + 576 x90 + 385 x91 + 385 x92
       + 164 x93 + 164 x94 + 283 x95 + 283 x96 + 765 x97 + 765 x98 + 224 x99
       + 224 x100 + 134 x101 + 134 x102 + 233 x103 + 233 x104 + 261 x105
       + 261 x106 + 845 x107 + 845 x108 + 938 x109 + 938 x110 + 186 x111
       + 186 x112 + 256 x113 + 256 x114 + 374 x115 + 374 x116 + 824 x117
       + 824 x118 + 26 x119 + 26 x120 + 250 x121 + 250 x122 + 19 x123 + 19 x124
       + 70 x125 + 70 x126 + 922 x127 + 922 x128 + 852 x129 + 852 x130
       + 103 x131 + 103 x132 + 813 x133 + 813 x134 + 185 x135 + 185 x136
       + 660 x137 + 660 x138 + 242 x139 + 242 x140 + 830 x141 + 830 x142
       + 838 x143 + 838 x144 + 484 x145 + 484 x146 + 24 x147 + 24 x148
       + 639 x149 + 639 x150 + 60 x151 + 60 x152 + 410 x153 + 410 x154
       + 803 x155 + 803 x156 + 344 x157 + 344 x158 + 175 x159 + 175 x160
       + 28 x161 + 28 x162 + 479 x163 + 479 x164 + 409 x165 + 409 x166
       + 289 x167 + 289 x168 + 325 x169 + 325 x170 + 347 x171 + 347 x172
       + 475 x173 + 475 x174 + 582 x175 + 582 x176 + 722 x177 + 722 x178
       + 300 x179 + 300 x180 + 608 x181 + 608 x182 + 972 x183 + 972 x184
       + 320 x185 + 320 x186 + 679 x187 + 679 x188 + 894 x189 + 894 x190
       + 172 x191 + 172 x192 + 782 x193 + 782 x194 + 708 x195 + 708 x196
       + 358 x197 + 358 x198 + 443 x199 + 443 x200 + 950 x201 + 950 x202
       + 188 x203 + 188 x204 + 282 x205 + 282 x206 + 435 x207 + 435 x208
       + 213 x209 + 213 x210 + 922 x211 + 922 x212 + 496 x213 + 496 x214
       + 623 x215 + 623 x216 + 725 x217 + 725 x218 + 840 x219 + 840 x220
       + 799 x221 + 799 x222 + 754 x223 + 754 x224 + 319 x225 + 319 x226
       + 208 x227 + 208 x228 + 43 x229 + 43 x230 + 645 x231 + 645 x232
       + 556 x233 + 556 x234 + 519 x235 + 519 x236 + 227 x237 + 227 x238
       + 279 x239 + 279 x240 + 820 x241 + 820 x242 + 835 x243 + 835 x244
       + 251 x245 + 251 x246 + 140 x247 + 140 x248 + 514 x249 + 514 x250
       + 145 x251 + 145 x252
Subject To
 c1:   x253 + x254 + x255 + x256 + x257 + x258 + x259 + x260 + x261 + x262
       + x263 + x264 + x265 + x266 + x267 + x268 + x269 + x270 + x271 + x272
       + x273 + x274 + x275 + x276 + x277 + x278 + x279 + x280 + x281 + x282
       + x283 + x284 + x285 + x286 + x287 + x288 + x289 + x290 + x291 + x292
       + x293 + x294 + x295 + x296 + x297 + x298 + x299 + x300 + x301 + x302
        = 1
 c2:   x253 + x303 <= 1
 c3:   x254 + x304 <= 1
 c4:   x255 + x305 <= 1
 c5:   x256 + x306 <= 1
 c6:   x257 + x307 <= 1
 c7:   x258 + x308 <= 1
 c8:   x259 + x309 <= 1
 c9:   x260 + x310 <= 1
 c10:  x261 + x311 <= 1
 c11:  x262 + x312 <= 1
 c12:  x263 + x313 <= 1
 c13:  x264 + x314 <= 1
 c14:  x265 + x315 <= 1
 c15:  x266 + x316 <= 1
 c16:  x267 + x317 <= 1
 c17:  x268 + x318 <= 1
 c18:  x269 + x319 <= 1
 c19:  x270 + x320 <= 1
 c20:  x271 + x321 <= 1
 c21:  x272 + x322 <= 1
 c22:  x273 + x323 <= 1
 c23:  x274 + x324 <= 1
 c24:  x275 + x325 <= 1
 c25:  x276 + x326 <= 1
 c26:  x277 + x327 <= 1
 c27:  x278 + x328 <= 1
 c28:  x279 + x329 <= 1
 c29:  x280 + x330 <= 1
 c30:  x281 + x331 <= 1
 c31:  x282 + x332 <= 1
 c32:  x283 + x333 <= 1
 c33:  x284 + x334 <= 1
 c34:  x285 + x335 <= 1
 c35:  x286 + x336 <= 1
 c36:  x287 + x337 <= 1
 c37:  x288 + x338 <= 1
 c38:  x289 + x339 <= 1
 c39:  x290 + x340 <= 1
 c40:  x291 + x341 <= 1
 c41:  x292 + x342 <= 1
 c42:  x293 + x343 <= 1
 c43:  x294 + x344 <= 1
 c44:  x295 + x345 <= 1
 c45:  x296 + x346 <= 1
 c46:  x297 + x347 <= 1
 c47:  x298 + x348 <= 1
 c48:  x299 + x349 <= 1
 c49:  x300 + x350 <= 1
 c50:  x301 + x351 <= 1
 c51:  x302 + x352 <= 1
 c52:  x1 + x2 <= 1
 c53:  x3 + x4 <= 1
 c54:  x5 + x6 <= 1
 c55:  x7 + x8 <= 1
 c56:  x9 + x10 <= 1
 c57:  x11 + x12 <= 1
 c58:  x13 + x14 <= 1
 c59:  x15 + x16 <= 1
 c60:  x17 + x18 <= 1
 c61:  x19 + x20 <= 1
 c62:  x21 + x22 <= 1
 c63:  x23 + x24 <= 1
 c64:  x25 + x26 <= 1
 c65:  x27 + x28 <= 1
 c66:  x29 + x30 <= 1
 c67:  x31 + x32 <= 1
 c68:  x33 + x34 <= 1
 c69:  x35 + x36 <= 1
 c70:  x37 + x38 <= 1
 c71:  x39 + x40 <= 1
 c72:  x41 + x42 <= 1
 c73:  x43 + x44 <= 1
 c74:  x45 + x46 <= 1
 c75:  x47 + x48 <= 1
 c76:  x49 + x50 <= 1
 c77:  x51 + x52 <= 1
 c78:  x53 + x54 <= 1
 c79:  x55 + x56 <= 1
 c80:  x57 + x58 <= 1
 c81:  x59 + x60 <= 1
 c82:  x61 + x62 <= 1
 c83:  x63 + x64 <= 1
 c84:  x65 + x66 <= 1
 c85:  x67 + x68 <= 1
 c86:  x69 + x70 <= 1
 c87:  x71 + x72 <= 1
 c88:  x73 + x74 <= 1
 c89:  x75 + x76 <= 1
 c90:  x77 + x78 <= 1
 c91:  x79 + x80 <= 1
 c92:  x81 + x82 <= 1
 c93:  x83 + x84 <= 1
 c94:  x85 + x86 <= 1
 c95:  x87 + x88 <= 1
 c96:  x89 + x90 <= 1
 c97:  x91 + x92 <= 1
 c98:  x93 + x94 <= 1
 c99:  x95 + x96 <= 1
 c100: x97 + x98 <= 1
 c101: x99 + x100 <= 1
 c102: x101 + x102 <= 1
 c103: x103 + x104 <= 1
 c104: x105 + x106 <= 1
 c105: x107 + x108 <= 1
 c106: x109 + x110 <= 1
 c107: x111 + x112 <= 1
 c108: x113 + x114 <= 1
 c109: x115 + x116 <= 1
 c110: x117 + x118 <= 1
 c111: x119 + x120 <= 1
 c112: x121 + x122 <= 1
 c113: x123 + x124 <= 1
 c114: x125 + x126 <= 1
 c115: x127 + x128 <= 1
 c116: x129 + x130 <= 1
 c117: x131 + x132 <= 1
 c118: x133 + x134 <= 1
 c119: x135 + x136 <= 1
 c120: x137 + x138 <= 1
 c121: x139 + x140 <= 1
 c122: x141 + x142 <= 1
 c123: x143 + x144 <= 1
 c124: x145 + x146 <= 1
 c125: x147 + x148 <= 1
 c126: x149 + x150 <= 1
 c127: x151 + x152 <= 1
 c128: x153 + x154 <= 1
 c129: x155 + x156 <= 1
 c130: x157 + x158 <= 1
 c131: x159 + x160 <= 1
 c132: x161 + x162 <= 1
 c133: x163 + x164 <= 1
 c134: x165 + x166 <= 1
 c135: x167 + x168 <= 1
 c136: x169 + x170 <= 1
 c137: x171 + x172 <= 1
 c138: x173 + x174 <= 1
 c139: x175 + x176 <= 1
 c140: x177 + x178 <= 1
 c141: x179 + x180 <= 1
 c142: x181 + x182 <= 1
 c143: x183 + x184 <= 1
 c144: x185 + x186 <= 1
 c145: x187 + x188 <= 1
 c146: x189 + x190 <= 1
 c147: x191 + x192 <= 1
 c148: x193 + x194 <= 1
 c149: x195 + x196 <= 1
 c150: x197 + x198 <= 1
 c151: x199 + x200 <= 1
 c152: x201 + x202 <= 1
 c153: x203 + x204 <= 1
 c154: x205 + x206 <= 1
 c155: x207 + x208 <= 1
 c156: x209 + x210 <= 1
 c157: x211 + x212 <= 1
 c158: x213 + x214 <= 1
 c159: x215 + x216 <= 1
 c160: x217 + x218 <= 1
 c161: x219 + x220 <= 1
 c162: x221 + x222 <= 1
 c163: x223 + x224 <= 1
 c164: x225 + x226 <= 1
 c165: x227 + x228 <= 1
 c166: x229 + x230 <= 1
 c167: x231 + x232 <= 1
 c168: x233 + x234 <= 1
 c169: x235 + x236 <= 1
 c170: x237 + x238 <= 1
 c171: x239 + x240 <= 1
 c172: x241 + x242 <= 1
 c173: x243 + x244 <= 1
 c174: x245 + x246 <= 1
 c175: x247 + x248 <= 1
 c176: x249 + x250 <= 1
 c177: x251 + x252 <= 1
 c178: x303 + x304 + x305 + x306 + x307 + x308 + x309 + x310 + x311 + x312
       + x313 + x314 + x315 + x316 + x317 + x318 + x319 + x320 + x321 + x322
       + x323 + x324 + x325 + x326 + x327 + x328 + x329 + x330 + x331 + x332
       + x333 + x334 + x335 + x336 + x337 + x338 + x339 + x340 + x341 + x342
       + x343 + x344 + x345 + x346 + x347 + x348 + x349 + x350 + x351 + x352
        = 0
 c179: x353  = 0
 c180: x354 + x355 + x356 + x357 + x358 + x359 + x360 + x361 + x362 + x363
       + x364 + x365 + x366 + x367 + x368 + x369 + x370 + x371 + x372 + x373
       + x374 + x375 + x376 + x377 + x378 + x379 + x380 + x381 + x382 + x383
       + x384 + x385 + x386 + x387 + x388 + x389 + x390 + x391 + x392 + x393
       + x394 + x395 + x396 + x397 + x398 + x399 + x400 + x401 + x402 + x403
        = 10
 c181: x2 + x4 + x6 + x8 + x10 + x12 + x253 - x354  = 0
 c182: x1 + x14 + x254 - x355  = 0
 c183: x3 + x16 + x18 + x20 + x22 + x255 - x356  = 0
 c184: x5 + x15 + x24 + x26 + x28 + x30 + x32 + x34 + x256 - x357  = 0
 c185: x7 + x17 + x36 + x38 + x40 + x42 + x257 - x358  = 0
 c186: x19 + x44 + x46 + x48 + x258 - x359  = 0
 c187: x43 + x50 + x52 + x54 + x56 + x259 - x360  = 0
 c188: x23 + x58 + x60 + x62 + x64 + x260 - x361  = 0
 c189: x45 + x66 + x261 - x362  = 0
 c190: x9 + x25 + x68 + x70 + x72 + x74 + x262 - x363  = 0
 c191: x27 + x76 + x78 + x80 + x82 + x84 + x86 + x263 - x364  = 0
 c192: x49 + x57 + x75 + x88 + x90 + x92 + x94 + x96 + x98 + x100 + x264 - x365
        = 0
 c193: x59 + x77 + x87 + x102 + x104 + x106 + x108 + x110 + x265 - x366  = 0
 c194: x29 + x112 + x114 + x266 - x367  = 0
 c195: x79 + x116 + x118 + x267 - x368  = 0
 c196: x67 + x81 + x120 + x122 + x124 + x126 + x128 + x130 + x268 - x369  = 0
 c197: x21 + x61 + x132 + x269 - x370  = 0
 c198: x35 + x63 + x89 + x134 + x136 + x270 - x371  = 0
 c199: x37 + x69 + x138 + x271 - x372  = 0
 c200: x51 + x140 + x272 - x373  = 0
 c201: x119 + x133 + x142 + x273 - x374  = 0
 c202: x31 + x53 + x121 + x144 + x146 + x148 + x150 + x274 - x375  = 0
 c203: x65 + x123 + x275 - x376  = 0
 c204: x91 + x131 + x152 + x276 - x377  = 0
 c205: x39 + x83 + x154 + x156 + x158 + x160 + x162 + x277 - x378  = 0
 c206: x71 + x143 + x164 + x278 - x379  = 0
 c207: x93 + x166 + x168 + x279 - x380  = 0
 c208: x101 + x165 + x280 - x381  = 0
 c209: x41 + x137 + x145 + x281 - x382  = 0
 c210: x111 + x170 + x282 - x383  = 0
 c211: x125 + x135 + x147 + x172 + x283 - x384  = 0
 c212: x55 + x284 - x385  = 0
 c213: x103 + x151 + x174 + x176 + x285 - x386  = 0
 c214: x95 + x178 + x180 + x286 - x387  = 0
 c215: x105 + x153 + x169 + x182 + x184 + x186 + x188 + x190 + x192 + x287
       - x388  = 0
 c216: x107 + x115 + x194 + x196 + x288 - x389  = 0
 c217: x109 + x113 + x155 + x167 + x198 + x200 + x202 + x204 + x289 - x390  = 0
 c218: x73 + x149 + x181 + x193 + x197 + x206 + x208 + x290 - x391  = 0
 c219: x47 + x183 + x291 - x392  = 0
 c220: x33 + x173 + x210 + x212 + x214 + x292 - x393  = 0
 c221: x163 + x185 + x205 + x216 + x218 + x220 + x293 - x394  = 0
 c222: x97 + x139 + x157 + x187 + x199 + x222 + x224 + x294 - x395  = 0
 c223: x85 + x127 + x141 + x209 + x215 + x226 + x228 + x295 - x396  = 0
 c224: x171 + x201 + x230 + x296 - x397  = 0
 c225: x13 + x99 + x159 + x175 + x203 + x229 + x232 + x234 + x236 + x238 + x297
       - x398  = 0
 c226: x11 + x161 + x189 + x195 + x217 + x221 + x231 + x240 + x298 - x399  = 0
 c227: x211 + x225 + x233 + x242 + x244 + x246 + x299 - x400  = 0
 c228: x129 + x177 + x191 + x207 + x239 + x241 + x248 + x250 + x300 - x401  = 0
 c229: x117 + x179 + x213 + x219 + x223 + x235 + x243 + x247 + x252 + x301
       - x402  = 0
 c230: x227 + x237 + x245 + x249 + x251 + x302 - x403  = 0
 c231: x1 + x3 + x5 + x7 + x9 + x11 + x303 - 9 x354 <= 0
 c232: x2 + x13 + x304 - 9 x355 <= 0
 c233: x4 + x15 + x17 + x19 + x21 + x305 - 9 x356 <= 0
 c234: x6 + x16 + x23 + x25 + x27 + x29 + x31 + x33 + x306 - 9 x357 <= 0
 c235: x8 + x18 + x35 + x37 + x39 + x41 + x307 - 9 x358 <= 0
 c236: x20 + x43 + x45 + x47 + x308 - 9 x359 <= 0
 c237: x44 + x49 + x51 + x53 + x55 + x309 - 9 x360 <= 0
 c238: x24 + x57 + x59 + x61 + x63 + x310 - 9 x361 <= 0
 c239: x46 + x65 + x311 - 9 x362 <= 0
 c240: x10 + x26 + x67 + x69 + x71 + x73 + x312 - 9 x363 <= 0
 c241: x28 + x75 + x77 + x79 + x81 + x83 + x85 + x313 - 9 x364 <= 0
 c242: x50 + x58 + x76 + x87 + x89 + x91 + x93 + x95 + x97 + x99 + x314
       - 9 x365 <= 0
 c243: x60 + x78 + x88 + x101 + x103 + x105 + x107 + x109 + x315 - 9 x366 <= 0
 c244: x30 + x111 + x113 + x316 - 9 x367 <= 0
 c245: x80 + x115 + x117 + x317 - 9 x368 <= 0
 c246: x68 + x82 + x119 + x121 + x123 + x125 + x127 + x129 + x318 - 9 x369 <= 0
 c247: x22 + x62 + x131 + x319 - 9 x370 <= 0
 c248: x36 + x64 + x90 + x133 + x135 + x320 - 9 x371 <= 0
 c249: x38 + x70 + x137 + x321 - 9 x372 <= 0
 c250: x52 + x139 + x322 - 9 x373 <= 0
 c251: x120 + x134 + x141 + x323 - 9 x374 <= 0
 c252: x32 + x54 + x122 + x143 + x145 + x147 + x149 + x324 - 9 x375 <= 0
 c253: x66 + x124 + x325 - 9 x376 <= 0
 c254: x92 + x132 + x151 + x326 - 9 x377 <= 0
 c255: x40 + x84 + x153 + x155 + x157 + x159 + x161 + x327 - 9 x378 <= 0
 c256: x72 + x144 + x163 + x328 - 9 x379 <= 0
 c257: x94 + x165 + x167 + x329 - 9 x380 <= 0
 c258: x102 + x166 + x330 - 9 x381 <= 0
 c259: x42 + x138 + x146 + x331 - 9 x382 <= 0
 c260: x112 + x169 + x332 - 9 x383 <= 0
 c261: x126 + x136 + x148 + x171 + x333 - 9 x384 <= 0
 c262: x56 + x334 - 9 x385 <= 0
 c263: x104 + x152 + x173 + x175 + x335 - 9 x386 <= 0
 c264: x96 + x177 + x179 + x336 - 9 x387 <= 0
 c265: x106 + x154 + x170 + x181 + x183 + x185 + x187 + x189 + x191 + x337
       - 9 x388 <= 0
 c266: x108 + x116 + x193 + x195 + x338 - 9 x389 <= 0
 c267: x110 + x114 + x156 + x168 + x197 + x199 + x201 + x203 + x339 - 9 x390
       <= 0
 c268: x74 + x150 + x182 + x194 + x198 + x205 + x207 + x340 - 9 x391 <= 0
 c269: x48 + x184 + x341 - 9 x392 <= 0
 c270: x34 + x174 + x209 + x211 + x213 + x342 - 9 x393 <= 0
 c271: x164 + x186 + x206 + x215 + x217 + x219 + x343 - 9 x394 <= 0
 c272: x98 + x140 + x158 + x188 + x200 + x221 + x223 + x344 - 9 x395 <= 0
 c273: x86 + x128 + x142 + x210 + x216 + x225 + x227 + x345 - 9 x396 <= 0
 c274: x172 + x202 + x229 + x346 - 9 x397 <= 0
 c275: x14 + x100 + x160 + x176 + x204 + x230 + x231 + x233 + x235 + x237
       + x347 - 9 x398 <= 0
 c276: x12 + x162 + x190 + x196 + x218 + x222 + x232 + x239 + x348 - 9 x399
       <= 0
 c277: x212 + x226 + x234 + x241 + x243 + x245 + x349 - 9 x400 <= 0
 c278: x130 + x178 + x192 + x208 + x240 + x242 + x247 + x249 + x350 - 9 x401
       <= 0
 c279: x118 + x180 + x214 + x220 + x224 + x236 + x244 + x248 + x251 + x351
       - 9 x402 <= 0
 c280: x228 + x238 + x246 + x250 + x252 + x352 - 9 x403 <= 0
 c281: x1 + x2 + x3 + x4 + x5 + x6 + x7 + x8 + x9 + x10 + x11 + x12 + x13 + x14
       + x15 + x16 + x17 + x18 + x19 + x20 + x21 + x22 + x23 + x24 + x25 + x26
       + x27 + x28 + x29 + x30 + x31 + x32 + x33 + x34 + x35 + x36 + x37 + x38
       + x39 + x40 + x41 + x42 + x43 + x44 + x45 + x46 + x47 + x48 + x49 + x50
       + x51 + x52 + x53 + x54 + x55 + x56 + x57 + x58 + x59 + x60 + x61 + x62
       + x63 + x64 + x65 + x66 + x67 + x68 + x69 + x70 + x71 + x72 + x73 + x74
       + x75 + x76 + x77 + x78 + x79 + x80 + x81 + x82 + x83 + x84 + x85 + x86
       + x87 + x88 + x89 + x90 + x91 + x92 + x93 + x94 + x95 + x96 + x97 + x98
       + x99 + x100 + x101 + x102 + x103 + x104 + x105 + x106 + x107 + x108
       + x109 + x110 + x111 + x112 + x113 + x114 + x115 + x116 + x117 + x118
       + x119 + x120 + x121 + x122 + x123 + x124 + x125 + x126 + x127 + x128
       + x129 + x130 + x131 + x132 + x133 + x134 + x135 + x136 + x137 + x138
       + x139 + x140 + x141 + x142 + x143 + x144 + x145 + x146 + x147 + x148
       + x149 + x150 + x151 + x152 + x153 + x154 + x155 + x156 + x157 + x158
       + x159 + x160 + x161 + x162 + x163 + x164 + x165 + x166 + x167 + x168
       + x169 + x170 + x171 + x172 + x173 + x174 + x175 + x176 + x177 + x178
       + x179 + x180 + x181 + x182 + x183 + x184 + x185 + x186 + x187 + x188
       + x189 + x190 + x191 + x192 + x193 + x194 + x195 + x196 + x197 + x198
       + x199 + x200 + x201 + x202 + x203 + x204 + x205 + x206 + x207 + x208
       + x209 + x210 + x211 + x212 + x213 + x214 + x215 + x216 + x217 + x218
       + x219 + x220 + x221 + x222 + x223 + x224 + x225 + x226 + x227 + x228
       + x229 + x230 + x231 + x232 + x233 + x234 + x235 + x236 + x237 + x238
       + x239 + x240 + x241 + x242 + x243 + x244 + x245 + x246 + x247 + x248
       + x249 + x250 + x251 + x252 + x253 + x254 + x255 + x256 + x257 + x258
       + x259 + x260 + x261 + x262 + x263 + x264 + x265 + x266 + x267 + x268
       + x269 + x270 + x271 + x272 + x273 + x274 + x275 + x276 + x277 + x278
       + x279 + x280 + x281 + x282 + x283 + x284 + x285 + x286 + x287 + x288
       + x289 + x290 + x291 + x292 + x293 + x294 + x295 + x296 + x297 + x298
       + x299 + x300 + x301 + x302 + x303 + x304 + x305 + x306 + x307 + x308
       + x309 + x310 + x311 + x312 + x313 + x314 + x315 + x316 + x317 + x318
       + x319 + x320 + x321 + x322 + x323 + x324 + x325 + x326 + x327 + x328
       + x329 + x330 + x331 + x332 + x333 + x334 + x335 + x336 + x337 + x338
       + x339 + x340 + x341 + x342 + x343 + x344 + x345 + x346 + x347 + x348
       + x349 + x350 + x351 + x352  = 10
Bounds
 0 <= x1 <= 1
 0 <= x2 <= 1
 0 <= x3 <= 1
 0 <= x4 <= 1
 0 <= x5 <= 1
 0 <= x6 <= 1
 0 <= x7 <= 1
 0 <= x8 <= 1
 0 <= x9 <= 1
 0 <= x10 <= 1
 0 <= x11 <= 1
 0 <= x12 <= 1
 0 <= x13 <= 1
 0 <= x14 <= 1
 0 <= x15 <= 1
 0 <= x16 <= 1
 0 <= x17 <= 1
 0 <= x18 <= 1
 0 <= x19 <= 1
 0 <= x20 <= 1
 0 <= x21 <= 1
 0 <= x22 <= 1
 0 <= x23 <= 1
 0 <= x24 <= 1
 0 <= x25 <= 1
 0 <= x26 <= 1
 0 <= x27 <= 1
 0 <= x28 <= 1
 0 <= x29 <= 1
 0 <= x30 <= 1
 0 <= x31 <= 1
 0 <= x32 <= 1
 0 <= x33 <= 1
 0 <= x34 <= 1
 0 <= x35 <= 1
 0 <= x36 <= 1
 0 <= x37 <= 1
 0 <= x38 <= 1
 0 <= x39 <= 1
 0 <= x40 <= 1
 0 <= x41 <= 1
 0 <= x42 <= 1
 0 <= x43 <= 1
 0 <= x44 <= 1
 0 <= x45 <= 1
 0 <= x46 <= 1
 0 <= x47 <= 1
 0 <= x48 <= 1
 0 <= x49 <= 1
 0 <= x50 <= 1
 0 <= x51 <= 1
 0 <= x52 <= 1
 0 <= x53 <= 1
 0 <= x54 <= 1
 0 <= x55 <= 1
 0 <= x56 <= 1
 0 <= x57 <= 1
 0 <= x58 <= 1
 0 <= x59 <= 1
 0 <= x60 <= 1
 0 <= x61 <= 1
 0 <= x62 <= 1
 0 <= x63 <= 1
 0 <= x64 <= 1
 0 <= x65 <= 1
 0 <= x66 <= 1
 0 <= x67 <= 1
 0 <= x68 <= 1
 0 <= x69 <= 1
 0 <= x70 <= 1
 0 <= x71 <= 1
 0 <= x72 <= 1
 0 <= x73 <= 1
 0 <= x74 <= 1
 0 <= x75 <= 1
 0 <= x76 <= 1
 0 <= x77 <= 1
 0 <= x78 <= 1
 0 <= x79 <= 1
 0 <= x80 <= 1
 0 <= x81 <= 1
 0 <= x82 <= 1
 0 <= x83 <= 1
 0 <= x84 <= 1
 0 <= x85 <= 1
 0 <= x86 <= 1
 0 <= x87 <= 1
 0 <= x88 <= 1
 0 <= x89 <= 1
 0 <= x90 <= 1
 0 <= x91 <= 1
 0 <= x92 <= 1
 0 <= x93 <= 1
 0 <= x94 <= 1
 0 <= x95 <= 1
 0 <= x96 <= 1
 0 <= x97 <= 1
 0 <= x98 <= 1
 0 <= x99 <= 1
 0 <= x100 <= 1
 0 <= x101 <= 1
 0 <= x102 <= 1
 0 <= x103 <= 1
 0 <= x104 <= 1
 0 <= x105 <= 1
 0 <= x106 <= 1
 0 <= x107 <= 1
 0 <= x108 <= 1
 0 <= x109 <= 1
 0 <= x110 <= 1
 0 <= x111 <= 1
 0 <= x112 <= 1
 0 <= x113 <= 1
 0 <= x114 <= 1
 0 <= x115 <= 1
 0 <= x116 <= 1
 0 <= x117 <= 1
 0 <= x118 <= 1
 0 <= x119 <= 1
 0 <= x120 <= 1
 0 <= x121 <= 1
 0 <= x122 <= 1
 0 <= x123 <= 1
 0 <= x124 <= 1
 0 <= x125 <= 1
 0 <= x126 <= 1
 0 <= x127 <= 1
 0 <= x128 <= 1
 0 <= x129 <= 1
 0 <= x130 <= 1
 0 <= x131 <= 1
 0 <= x132 <= 1
 0 <= x133 <= 1
 0 <= x134 <= 1
 0 <= x135 <= 1
 0 <= x136 <= 1
 0 <= x137 <= 1
 0 <= x138 <= 1
 0 <= x139 <= 1
 0 <= x140 <= 1
 0 <= x141 <= 1
 0 <= x142 <= 1
 0 <= x143 <= 1
 0 <= x144 <= 1
 0 <= x145 <= 1
 0 <= x146 <= 1
 0 <= x147 <= 1
 0 <= x148 <= 1
 0 <= x149 <= 1
 0 <= x150 <= 1
 0 <= x151 <= 1
 0 <= x152 <= 1
 0 <= x153 <= 1
 0 <= x154 <= 1
 0 <= x155 <= 1
 0 <= x156 <= 1
 0 <= x157 <= 1
 0 <= x158 <= 1
 0 <= x159 <= 1
 0 <= x160 <= 1
 0 <= x161 <= 1
 0 <= x162 <= 1
 0 <= x163 <= 1
 0 <= x164 <= 1
 0 <= x165 <= 1
 0 <= x166 <= 1
 0 <= x167 <= 1
 0 <= x168 <= 1
 0 <= x169 <= 1
 0 <= x170 <= 1
 0 <= x171 <= 1
 0 <= x172 <= 1
 0 <= x173 <= 1
 0 <= x174 <= 1
 0 <= x175 <= 1
 0 <= x176 <= 1
 0 <= x177 <= 1
 0 <= x178 <= 1
 0 <= x179 <= 1
 0 <= x180 <= 1
 0 <= x181 <= 1
 0 <= x182 <= 1
 0 <= x183 <= 1
 0 <= x184 <= 1
 0 <= x185 <= 1
 0 <= x186 <= 1
 0 <= x187 <= 1
 0 <= x188 <= 1
 0 <= x189 <= 1
 0 <= x190 <= 1
 0 <= x191 <= 1
 0 <= x192 <= 1
 0 <= x193 <= 1
 0 <= x194 <= 1
 0 <= x195 <= 1
 0 <= x196 <= 1
 0 <= x197 <= 1
 0 <= x198 <= 1
 0 <= x199 <= 1
 0 <= x200 <= 1
 0 <= x201 <= 1
 0 <= x202 <= 1
 0 <= x203 <= 1
 0 <= x204 <= 1
 0 <= x205 <= 1
 0 <= x206 <= 1
 0 <= x207 <= 1
 0 <= x208 <= 1
 0 <= x209 <= 1
 0 <= x210 <= 1
 0 <= x211 <= 1
 0 <= x212 <= 1
 0 <= x213 <= 1
 0 <= x214 <= 1
 0 <= x215 <= 1
 0 <= x216 <= 1
 0 <= x217 <= 1
 0 <= x218 <= 1
 0 <= x219 <= 1
 0 <= x220 <= 1
 0 <= x221 <= 1
 0 <= x222 <= 1
 0 <= x223 <= 1
 0 <= x224 <= 1
 0 <= x225 <= 1
 0 <= x226 <= 1
 0 <= x227 <= 1
 0 <= x228 <= 1
 0 <= x229 <= 1
 0 <= x230 <= 1
 0 <= x231 <= 1
 0 <= x232 <= 1
 0 <= x233 <= 1
 0 <= x234 <= 1
 0 <= x235 <= 1
 0 <= x236 <= 1
 0 <= x237 <= 1
 0 <= x238 <= 1
 0 <= x239 <= 1
 0 <= x240 <= 1
 0 <= x241 <= 1
 0 <= x242 <= 1
 0 <= x243 <= 1
 0 <= x244 <= 1
 0 <= x245 <= 1
 0 <= x246 <= 1
 0 <= x247 <= 1
 0 <= x248 <= 1
 0 <= x249 <= 1
 0 <= x250 <= 1
 0 <= x251 <= 1
 0 <= x252 <= 1
 0 <= x253 <= 1
 0 <= x254 <= 1
 0 <= x255 <= 1
 0 <= x256 <= 1
 0 <= x257 <= 1
 0 <= x258 <= 1
 0 <= x259 <= 1
 0 <= x260 <= 1
 0 <= x261 <= 1
 0 <= x262 <= 1
 0 <= x263 <= 1
 0 <= x264 <= 1
 0 <= x265 <= 1
 0 <= x266 <= 1
 0 <= x267 <= 1
 0 <= x268 <= 1
 0 <= x269 <= 1
 0 <= x270 <= 1
 0 <= x271 <= 1
 0 <= x272 <= 1
 0 <= x273 <= 1
 0 <= x274 <= 1
 0 <= x275 <= 1
 0 <= x276 <= 1
 0 <= x277 <= 1
 0 <= x278 <= 1
 0 <= x279 <= 1
 0 <= x280 <= 1
 0 <= x281 <= 1
 0 <= x282 <= 1
 0 <= x283 <= 1
 0 <= x284 <= 1
 0 <= x285 <= 1
 0 <= x286 <= 1
 0 <= x287 <= 1
 0 <= x288 <= 1
 0 <= x289 <= 1
 0 <= x290 <= 1
 0 <= x291 <= 1
 0 <= x292 <= 1
 0 <= x293 <= 1
 0 <= x294 <= 1
 0 <= x295 <= 1
 0 <= x296 <= 1
 0 <= x297 <= 1
 0 <= x298 <= 1
 0 <= x299 <= 1
 0 <= x300 <= 1
 0 <= x301 <= 1
 0 <= x302 <= 1
 0 <= x303 <= 1
 0 <= x304 <= 1
 0 <= x305 <= 1
 0 <= x306 <= 1
 0 <= x307 <= 1
 0 <= x308 <= 1
 0 <= x309 <= 1
 0 <= x310 <= 1
 0 <= x311 <= 1
 0 <= x312 <= 1
 0 <= x313 <= 1
 0 <= x314 <= 1
 0 <= x315 <= 1
 0 <= x316 <= 1
 0 <= x317 <= 1
 0 <= x318 <= 1
 0 <= x319 <= 1
 0 <= x320 <= 1
 0 <= x321 <= 1
 0 <= x322 <= 1
 0 <= x323 <= 1
 0 <= x324 <= 1
 0 <= x325 <= 1
 0 <= x326 <= 1
 0 <= x327 <= 1
 0 <= x328 <= 1
 0 <= x329 <= 1
 0 <= x330 <= 1
 0 <= x331 <= 1
 0 <= x332 <= 1
 0 <= x333 <= 1
 0 <= x334 <= 1
 0 <= x335 <= 1
 0 <= x336 <= 1
 0 <= x337 <= 1
 0 <= x338 <= 1
 0 <= x339 <= 1
 0 <= x340 <= 1
 0 <= x341 <= 1
 0 <= x342 <= 1
 0 <= x343 <= 1
 0 <= x344 <= 1
 0 <= x345 <= 1
 0 <= x346 <= 1
 0 <= x347 <= 1
 0 <= x348 <= 1
 0 <= x349 <= 1
 0 <= x350 <= 1
 0 <= x351 <= 1
 0 <= x352 <= 1
 0 <= x353 <= 1
 0 <= x354 <= 1
 0 <= x355 <= 1
 0 <= x356 <= 1
 0 <= x357 <= 1
 0 <= x358 <= 1
 0 <= x359 <= 1
 0 <= x360 <= 1
 0 <= x361 <= 1
 0 <= x362 <= 1
 0 <= x363 <= 1
 0 <= x364 <= 1
 0 <= x365 <= 1
 0 <= x366 <= 1
 0 <= x367 <= 1
 0 <= x368 <= 1
 0 <= x369 <= 1
 0 <= x370 <= 1
 0 <= x371 <= 1
 0 <= x372 <= 1
 0 <= x373 <= 1
 0 <= x374 <= 1
 0 <= x375 <= 1
 0 <= x376 <= 1
 0 <= x377 <= 1
 0 <= x378 <= 1
 0 <= x379 <= 1
 0 <= x380 <= 1
 0 <= x381 <= 1
 0 <= x382 <= 1
 0 <= x383 <= 1
 0 <= x384 <= 1
 0 <= x385 <= 1
 0 <= x386 <= 1
 0 <= x387 <= 1
 0 <= x388 <= 1
 0 <= x389 <= 1
 0 <= x390 <= 1
 0 <= x391 <= 1
 0 <= x392 <= 1
 0 <= x393 <= 1
 0 <= x394 <= 1
 0 <= x395 <= 1
 0 <= x396 <= 1
 0 <= x397 <= 1
 0 <= x398 <= 1
 0 <= x399 <= 1
 0 <= x400 <= 1
 0 <= x401 <= 1
 0 <= x402 <= 1
 0 <= x403 <= 1
Binaries
 x1  x2  x3  x4  x5  x6  x7  x8  x9  x10  x11  x12  x13  x14  x15  x16  x17 
 x18  x19  x20  x21  x22  x23  x24  x25  x26  x27  x28  x29  x30  x31  x32 
 x33  x34  x35  x36  x37  x38  x39  x40  x41  x42  x43  x44  x45  x46  x47 
 x48  x49  x50  x51  x52  x53  x54  x55  x56  x57  x58  x59  x60  x61  x62 
 x63  x64  x65  x66  x67  x68  x69  x70  x71  x72  x73  x74  x75  x76  x77 
 x78  x79  x80  x81  x82  x83  x84  x85  x86  x87  x88  x89  x90  x91  x92 
 x93  x94  x95  x96  x97  x98  x99  x100  x101  x102  x103  x104  x105  x106 
 x107  x108  x109  x110  x111  x112  x113  x114  x115  x116  x117  x118  x119 
 x120  x121  x122  x123  x124  x125  x126  x127  x128  x129  x130  x131  x132 
 x133  x134  x135  x136  x137  x138  x139  x140  x141  x142  x143  x144  x145 
 x146  x147  x148  x149  x150  x151  x152  x153  x154  x155  x156  x157  x158 
 x159  x160  x161  x162  x163  x164  x165  x166  x167  x168  x169  x170  x171 
 x172  x173  x174  x175  x176  x177  x178  x179  x180  x181  x182  x183  x184 
 x185  x186  x187  x188  x189  x190  x191  x192  x193  x194  x195  x196  x197 
 x198  x199  x200  x201  x202  x203  x204  x205  x206  x207  x208  x209  x210 
 x211  x212  x213  x214  x215  x216  x217  x218  x219  x220  x221  x222  x223 
 x224  x225  x226  x227  x228  x229  x230  x231  x232  x233  x234  x235  x236 
 x237  x238  x239  x240  x241  x242  x243  x244  x245  x246  x247  x248  x249 
 x250  x251  x252  x253  x254  x255  x256  x257  x258  x259  x260  x261  x262 
 x263  x264  x265  x266  x267  x268  x269  x270  x271  x272  x273  x274  x275 
 x276  x277  x278  x279  x280  x281  x282  x283  x284  x285  x286  x287  x288 
 x289  x290  x291  x292  x293  x294  x295  x296  x297  x298  x299  x300  x301 
 x302  x303  x304  x305  x306  x307  x308  x309  x310  x311  x312  x313  x314 
 x315  x316  x317  x318  x319  x320  x321  x322  x323  x324  x325  x326  x327 
 x328  x329  x330  x331  x332  x333  x334  x335  x336  x337  x338  x339  x340 
 x341  x342  x343  x344  x345  x346  x347  x348  x349  x350  x351  x352  x353 
 x354  x355  x356  x357  x358  x359  x360  x361  x362  x363  x364  x365  x366 
 x367  x368  x369  x370  x371  x372  x373  x374  x375  x376  x377  x378  x379 
 x380  x381  x382  x383  x384  x385  x386  x387  x388  x389  x390  x391  x392 
 x393  x394  x395  x396  x397  x398  x399  x400  x401  x402  x403 
End
